;--------------------------------------------------------------------------
; Benchmark created with Zazu
; Benchmark: 		wensley_norm_inv3_3xlen2
; Created:   		2022-01-11 18:12
; Generator of the ideal: 
; 		 -2*b00*y00 + a00*d00 + 2*b00*y - a*d00
; 		 -b*d00 + b00*d
; 		 a*d - 2*b*y + 2*b*y00 - a00*d
; Testing invariant: -2*a^5*b^10*d^7*y^4*y00 + a^6*b^8*d^8*y^4 + a^7*a00*b^6*d^8*y^6 + 2*a^7*b^7*d^4*y^7 - a^8*b^6*d^8*y^6 + a^8*b^7*d^5*y^6 - 2*a^7*b^7*d^4*y^6*y00 + 2*a^5*b^9*d^7*y^4*y00 - 2*a^5*b^10*d^4*y^4*y00 - 2*a^7*b^8*d^7*y^7 - a^6*b^9*d^5*y^4 + 2*a^5*b^10*d^4*y^5 - a^5*a00*b^8*d^8*y^4 + a^5*a00*b^9*d^5*y^4 - 2*a^5*b^9*d^4*y^5 - a^7*a00*b^7*d^5*y^6 - a^6*b^9*d^8*y^4 + 2*a^7*b^7*d^7*y^7 - 2*a^7*b^8*d^4*y^7 - a^8*b^6*d^5*y^6 + 2*a^7*b^8*d^7*y^6*y00 + a^7*a00*b^6*d^5*y^6 + a^6*b^8*d^5*y^4 + 2*a^5*b^9*d^4*y^4*y00 + a^8*b^7*d^8*y^6 + 2*a^5*b^10*d^7*y^5 - a^7*a00*b^7*d^8*y^6 + 2*a^7*b^8*d^4*y^6*y00 - a^5*a00*b^8*d^5*y^4 - 2*a^5*b^9*d^7*y^5 - 2*a^7*b^7*d^7*y^6*y00 + a^5*a00*b^9*d^8*y^4
;--------------------------------------------------------------------------

(set-logic NRA)
(set-option :produce-proofs true)

(declare-const a00 Real)
(declare-const b00 Real)
(declare-const d00 Real)
(declare-const y00 Real)

(assert 
	(exists
		((a Real) (b Real) (d Real) (y Real))
		(and
			(= (- (+ (* (- 2) b00 y00) (* a00 d00) (* 2 b00 y)) (* a d00)) 0)
			(= (+ (* (- 1) b d00) (* b00 d)) 0)
			(= (- (+ (- (* a d) (* 2 b y)) (* 2 b y00)) (* a00 d)) 0)

			(or
				(not (= (+ (- (+ (- (+ (- (+ (- (+ (- (+ (- (+ (- (+ (- (+ (* (- 2) a a a a a (/ b 2) (/ b 2) (/ b 2) (/ b 2) (/ b 2) (/ b 2) (/ b 2) (/ b 2) (/ b 2) (/ b 2) (/ d 2) (/ d 2) (/ d 2) (/ d 2) (/ d 2) (/ d 2) (/ d 2) y y y y y00) (* a a a a a a (/ b 2) (/ b 2) (/ b 2) (/ b 2) (/ b 2) (/ b 2) (/ b 2) (/ b 2) (/ d 2) (/ d 2) (/ d 2) (/ d 2) (/ d 2) (/ d 2) (/ d 2) (/ d 2) y y y y) (* a a a a a a a a00 (/ b 2) (/ b 2) (/ b 2) (/ b 2) (/ b 2) (/ b 2) (/ d 2) (/ d 2) (/ d 2) (/ d 2) (/ d 2) (/ d 2) (/ d 2) (/ d 2) y y y y y y) (* 2 a a a a a a a (/ b 2) (/ b 2) (/ b 2) (/ b 2) (/ b 2) (/ b 2) (/ b 2) (/ d 2) (/ d 2) (/ d 2) (/ d 2) y y y y y y y)) (* a a a a a a a a (/ b 2) (/ b 2) (/ b 2) (/ b 2) (/ b 2) (/ b 2) (/ d 2) (/ d 2) (/ d 2) (/ d 2) (/ d 2) (/ d 2) (/ d 2) (/ d 2) y y y y y y)) (* a a a a a a a a (/ b 2) (/ b 2) (/ b 2) (/ b 2) (/ b 2) (/ b 2) (/ b 2) (/ d 2) (/ d 2) (/ d 2) (/ d 2) (/ d 2) y y y y y y)) (* 2 a a a a a a a (/ b 2) (/ b 2) (/ b 2) (/ b 2) (/ b 2) (/ b 2) (/ b 2) (/ d 2) (/ d 2) (/ d 2) (/ d 2) y y y y y y y00)) (* 2 a a a a a (/ b 2) (/ b 2) (/ b 2) (/ b 2) (/ b 2) (/ b 2) (/ b 2) (/ b 2) (/ b 2) (/ d 2) (/ d 2) (/ d 2) (/ d 2) (/ d 2) (/ d 2) (/ d 2) y y y y y00)) (* 2 a a a a a (/ b 2) (/ b 2) (/ b 2) (/ b 2) (/ b 2) (/ b 2) (/ b 2) (/ b 2) (/ b 2) (/ b 2) (/ d 2) (/ d 2) (/ d 2) (/ d 2) y y y y y00) (* 2 a a a a a a a (/ b 2) (/ b 2) (/ b 2) (/ b 2) (/ b 2) (/ b 2) (/ b 2) (/ b 2) (/ d 2) (/ d 2) (/ d 2) (/ d 2) (/ d 2) (/ d 2) (/ d 2) y y y y y y y) (* a a a a a a (/ b 2) (/ b 2) (/ b 2) (/ b 2) (/ b 2) (/ b 2) (/ b 2) (/ b 2) (/ b 2) (/ d 2) (/ d 2) (/ d 2) (/ d 2) (/ d 2) y y y y)) (* 2 a a a a a (/ b 2) (/ b 2) (/ b 2) (/ b 2) (/ b 2) (/ b 2) (/ b 2) (/ b 2) (/ b 2) (/ b 2) (/ d 2) (/ d 2) (/ d 2) (/ d 2) y y y y y)) (* a a a a a a00 (/ b 2) (/ b 2) (/ b 2) (/ b 2) (/ b 2) (/ b 2) (/ b 2) (/ b 2) (/ d 2) (/ d 2) (/ d 2) (/ d 2) (/ d 2) (/ d 2) (/ d 2) (/ d 2) y y y y)) (* a a a a a a00 (/ b 2) (/ b 2) (/ b 2) (/ b 2) (/ b 2) (/ b 2) (/ b 2) (/ b 2) (/ b 2) (/ d 2) (/ d 2) (/ d 2) (/ d 2) (/ d 2) y y y y)) (* 2 a a a a a (/ b 2) (/ b 2) (/ b 2) (/ b 2) (/ b 2) (/ b 2) (/ b 2) (/ b 2) (/ b 2) (/ d 2) (/ d 2) (/ d 2) (/ d 2) y y y y y) (* a a a a a a a a00 (/ b 2) (/ b 2) (/ b 2) (/ b 2) (/ b 2) (/ b 2) (/ b 2) (/ d 2) (/ d 2) (/ d 2) (/ d 2) (/ d 2) y y y y y y) (* a a a a a a (/ b 2) (/ b 2) (/ b 2) (/ b 2) (/ b 2) (/ b 2) (/ b 2) (/ b 2) (/ b 2) (/ d 2) (/ d 2) (/ d 2) (/ d 2) (/ d 2) (/ d 2) (/ d 2) (/ d 2) y y y y)) (* 2 a a a a a a a (/ b 2) (/ b 2) (/ b 2) (/ b 2) (/ b 2) (/ b 2) (/ b 2) (/ d 2) (/ d 2) (/ d 2) (/ d 2) (/ d 2) (/ d 2) (/ d 2) y y y y y y y)) (* 2 a a a a a a a (/ b 2) (/ b 2) (/ b 2) (/ b 2) (/ b 2) (/ b 2) (/ b 2) (/ b 2) (/ d 2) (/ d 2) (/ d 2) (/ d 2) y y y y y y y) (* a a a a a a a a (/ b 2) (/ b 2) (/ b 2) (/ b 2) (/ b 2) (/ b 2) (/ d 2) (/ d 2) (/ d 2) (/ d 2) (/ d 2) y y y y y y)) (* 2 a a a a a a a (/ b 2) (/ b 2) (/ b 2) (/ b 2) (/ b 2) (/ b 2) (/ b 2) (/ b 2) (/ d 2) (/ d 2) (/ d 2) (/ d 2) (/ d 2) (/ d 2) (/ d 2) y y y y y y y00) (* a a a a a a a a00 (/ b 2) (/ b 2) (/ b 2) (/ b 2) (/ b 2) (/ b 2) (/ d 2) (/ d 2) (/ d 2) (/ d 2) (/ d 2) y y y y y y) (* a a a a a a (/ b 2) (/ b 2) (/ b 2) (/ b 2) (/ b 2) (/ b 2) (/ b 2) (/ b 2) (/ d 2) (/ d 2) (/ d 2) (/ d 2) (/ d 2) y y y y) (* 2 a a a a a (/ b 2) (/ b 2) (/ b 2) (/ b 2) (/ b 2) (/ b 2) (/ b 2) (/ b 2) (/ b 2) (/ d 2) (/ d 2) (/ d 2) (/ d 2) y y y y y00) (* a a a a a a a a (/ b 2) (/ b 2) (/ b 2) (/ b 2) (/ b 2) (/ b 2) (/ b 2) (/ d 2) (/ d 2) (/ d 2) (/ d 2) (/ d 2) (/ d 2) (/ d 2) (/ d 2) y y y y y y) (* 2 a a a a a (/ b 2) (/ b 2) (/ b 2) (/ b 2) (/ b 2) (/ b 2) (/ b 2) (/ b 2) (/ b 2) (/ b 2) (/ d 2) (/ d 2) (/ d 2) (/ d 2) (/ d 2) (/ d 2) (/ d 2) y y y y y)) (* a a a a a a a a00 (/ b 2) (/ b 2) (/ b 2) (/ b 2) (/ b 2) (/ b 2) (/ b 2) (/ d 2) (/ d 2) (/ d 2) (/ d 2) (/ d 2) (/ d 2) (/ d 2) (/ d 2) y y y y y y)) (* 2 a a a a a a a (/ b 2) (/ b 2) (/ b 2) (/ b 2) (/ b 2) (/ b 2) (/ b 2) (/ b 2) (/ d 2) (/ d 2) (/ d 2) (/ d 2) y y y y y y y00)) (* a a a a a a00 (/ b 2) (/ b 2) (/ b 2) (/ b 2) (/ b 2) (/ b 2) (/ b 2) (/ b 2) (/ d 2) (/ d 2) (/ d 2) (/ d 2) (/ d 2) y y y y) (* 2 a a a a a (/ b 2) (/ b 2) (/ b 2) (/ b 2) (/ b 2) (/ b 2) (/ b 2) (/ b 2) (/ b 2) (/ d 2) (/ d 2) (/ d 2) (/ d 2) (/ d 2) (/ d 2) (/ d 2) y y y y y) (* 2 a a a a a a a (/ b 2) (/ b 2) (/ b 2) (/ b 2) (/ b 2) (/ b 2) (/ b 2) (/ d 2) (/ d 2) (/ d 2) (/ d 2) (/ d 2) (/ d 2) (/ d 2) y y y y y y y00)) (* a a a a a a00 (/ b 2) (/ b 2) (/ b 2) (/ b 2) (/ b 2) (/ b 2) (/ b 2) (/ b 2) (/ b 2) (/ d 2) (/ d 2) (/ d 2) (/ d 2) (/ d 2) (/ d 2) (/ d 2) (/ d 2) y y y y)) 0))
				(not (= (+ (- (+ (- (+ (- (+ (- (+ (- (+ (- (+ (- (+ (- (+ (* (- 2) (+ a b) (+ a b) (+ a b) (+ a b) (+ a b) (/ b 2) (/ b 2) (/ b 2) (/ b 2) (/ b 2) (/ b 2) (/ b 2) (/ b 2) (/ b 2) (/ b 2) (/ d 2) (/ d 2) (/ d 2) (/ d 2) (/ d 2) (/ d 2) (/ d 2) (+ y (/ d 2)) (+ y (/ d 2)) (+ y (/ d 2)) (+ y (/ d 2)) y00) (* (+ a b) (+ a b) (+ a b) (+ a b) (+ a b) (+ a b) (/ b 2) (/ b 2) (/ b 2) (/ b 2) (/ b 2) (/ b 2) (/ b 2) (/ b 2) (/ d 2) (/ d 2) (/ d 2) (/ d 2) (/ d 2) (/ d 2) (/ d 2) (/ d 2) (+ y (/ d 2)) (+ y (/ d 2)) (+ y (/ d 2)) (+ y (/ d 2))) (* (+ a b) (+ a b) (+ a b) (+ a b) (+ a b) (+ a b) (+ a b) a00 (/ b 2) (/ b 2) (/ b 2) (/ b 2) (/ b 2) (/ b 2) (/ d 2) (/ d 2) (/ d 2) (/ d 2) (/ d 2) (/ d 2) (/ d 2) (/ d 2) (+ y (/ d 2)) (+ y (/ d 2)) (+ y (/ d 2)) (+ y (/ d 2)) (+ y (/ d 2)) (+ y (/ d 2))) (* 2 (+ a b) (+ a b) (+ a b) (+ a b) (+ a b) (+ a b) (+ a b) (/ b 2) (/ b 2) (/ b 2) (/ b 2) (/ b 2) (/ b 2) (/ b 2) (/ d 2) (/ d 2) (/ d 2) (/ d 2) (+ y (/ d 2)) (+ y (/ d 2)) (+ y (/ d 2)) (+ y (/ d 2)) (+ y (/ d 2)) (+ y (/ d 2)) (+ y (/ d 2)))) (* (+ a b) (+ a b) (+ a b) (+ a b) (+ a b) (+ a b) (+ a b) (+ a b) (/ b 2) (/ b 2) (/ b 2) (/ b 2) (/ b 2) (/ b 2) (/ d 2) (/ d 2) (/ d 2) (/ d 2) (/ d 2) (/ d 2) (/ d 2) (/ d 2) (+ y (/ d 2)) (+ y (/ d 2)) (+ y (/ d 2)) (+ y (/ d 2)) (+ y (/ d 2)) (+ y (/ d 2)))) (* (+ a b) (+ a b) (+ a b) (+ a b) (+ a b) (+ a b) (+ a b) (+ a b) (/ b 2) (/ b 2) (/ b 2) (/ b 2) (/ b 2) (/ b 2) (/ b 2) (/ d 2) (/ d 2) (/ d 2) (/ d 2) (/ d 2) (+ y (/ d 2)) (+ y (/ d 2)) (+ y (/ d 2)) (+ y (/ d 2)) (+ y (/ d 2)) (+ y (/ d 2)))) (* 2 (+ a b) (+ a b) (+ a b) (+ a b) (+ a b) (+ a b) (+ a b) (/ b 2) (/ b 2) (/ b 2) (/ b 2) (/ b 2) (/ b 2) (/ b 2) (/ d 2) (/ d 2) (/ d 2) (/ d 2) (+ y (/ d 2)) (+ y (/ d 2)) (+ y (/ d 2)) (+ y (/ d 2)) (+ y (/ d 2)) (+ y (/ d 2)) y00)) (* 2 (+ a b) (+ a b) (+ a b) (+ a b) (+ a b) (/ b 2) (/ b 2) (/ b 2) (/ b 2) (/ b 2) (/ b 2) (/ b 2) (/ b 2) (/ b 2) (/ d 2) (/ d 2) (/ d 2) (/ d 2) (/ d 2) (/ d 2) (/ d 2) (+ y (/ d 2)) (+ y (/ d 2)) (+ y (/ d 2)) (+ y (/ d 2)) y00)) (* 2 (+ a b) (+ a b) (+ a b) (+ a b) (+ a b) (/ b 2) (/ b 2) (/ b 2) (/ b 2) (/ b 2) (/ b 2) (/ b 2) (/ b 2) (/ b 2) (/ b 2) (/ d 2) (/ d 2) (/ d 2) (/ d 2) (+ y (/ d 2)) (+ y (/ d 2)) (+ y (/ d 2)) (+ y (/ d 2)) y00) (* 2 (+ a b) (+ a b) (+ a b) (+ a b) (+ a b) (+ a b) (+ a b) (/ b 2) (/ b 2) (/ b 2) (/ b 2) (/ b 2) (/ b 2) (/ b 2) (/ b 2) (/ d 2) (/ d 2) (/ d 2) (/ d 2) (/ d 2) (/ d 2) (/ d 2) (+ y (/ d 2)) (+ y (/ d 2)) (+ y (/ d 2)) (+ y (/ d 2)) (+ y (/ d 2)) (+ y (/ d 2)) (+ y (/ d 2))) (* (+ a b) (+ a b) (+ a b) (+ a b) (+ a b) (+ a b) (/ b 2) (/ b 2) (/ b 2) (/ b 2) (/ b 2) (/ b 2) (/ b 2) (/ b 2) (/ b 2) (/ d 2) (/ d 2) (/ d 2) (/ d 2) (/ d 2) (+ y (/ d 2)) (+ y (/ d 2)) (+ y (/ d 2)) (+ y (/ d 2)))) (* 2 (+ a b) (+ a b) (+ a b) (+ a b) (+ a b) (/ b 2) (/ b 2) (/ b 2) (/ b 2) (/ b 2) (/ b 2) (/ b 2) (/ b 2) (/ b 2) (/ b 2) (/ d 2) (/ d 2) (/ d 2) (/ d 2) (+ y (/ d 2)) (+ y (/ d 2)) (+ y (/ d 2)) (+ y (/ d 2)) (+ y (/ d 2)))) (* (+ a b) (+ a b) (+ a b) (+ a b) (+ a b) a00 (/ b 2) (/ b 2) (/ b 2) (/ b 2) (/ b 2) (/ b 2) (/ b 2) (/ b 2) (/ d 2) (/ d 2) (/ d 2) (/ d 2) (/ d 2) (/ d 2) (/ d 2) (/ d 2) (+ y (/ d 2)) (+ y (/ d 2)) (+ y (/ d 2)) (+ y (/ d 2)))) (* (+ a b) (+ a b) (+ a b) (+ a b) (+ a b) a00 (/ b 2) (/ b 2) (/ b 2) (/ b 2) (/ b 2) (/ b 2) (/ b 2) (/ b 2) (/ b 2) (/ d 2) (/ d 2) (/ d 2) (/ d 2) (/ d 2) (+ y (/ d 2)) (+ y (/ d 2)) (+ y (/ d 2)) (+ y (/ d 2)))) (* 2 (+ a b) (+ a b) (+ a b) (+ a b) (+ a b) (/ b 2) (/ b 2) (/ b 2) (/ b 2) (/ b 2) (/ b 2) (/ b 2) (/ b 2) (/ b 2) (/ d 2) (/ d 2) (/ d 2) (/ d 2) (+ y (/ d 2)) (+ y (/ d 2)) (+ y (/ d 2)) (+ y (/ d 2)) (+ y (/ d 2))) (* (+ a b) (+ a b) (+ a b) (+ a b) (+ a b) (+ a b) (+ a b) a00 (/ b 2) (/ b 2) (/ b 2) (/ b 2) (/ b 2) (/ b 2) (/ b 2) (/ d 2) (/ d 2) (/ d 2) (/ d 2) (/ d 2) (+ y (/ d 2)) (+ y (/ d 2)) (+ y (/ d 2)) (+ y (/ d 2)) (+ y (/ d 2)) (+ y (/ d 2))) (* (+ a b) (+ a b) (+ a b) (+ a b) (+ a b) (+ a b) (/ b 2) (/ b 2) (/ b 2) (/ b 2) (/ b 2) (/ b 2) (/ b 2) (/ b 2) (/ b 2) (/ d 2) (/ d 2) (/ d 2) (/ d 2) (/ d 2) (/ d 2) (/ d 2) (/ d 2) (+ y (/ d 2)) (+ y (/ d 2)) (+ y (/ d 2)) (+ y (/ d 2)))) (* 2 (+ a b) (+ a b) (+ a b) (+ a b) (+ a b) (+ a b) (+ a b) (/ b 2) (/ b 2) (/ b 2) (/ b 2) (/ b 2) (/ b 2) (/ b 2) (/ d 2) (/ d 2) (/ d 2) (/ d 2) (/ d 2) (/ d 2) (/ d 2) (+ y (/ d 2)) (+ y (/ d 2)) (+ y (/ d 2)) (+ y (/ d 2)) (+ y (/ d 2)) (+ y (/ d 2)) (+ y (/ d 2)))) (* 2 (+ a b) (+ a b) (+ a b) (+ a b) (+ a b) (+ a b) (+ a b) (/ b 2) (/ b 2) (/ b 2) (/ b 2) (/ b 2) (/ b 2) (/ b 2) (/ b 2) (/ d 2) (/ d 2) (/ d 2) (/ d 2) (+ y (/ d 2)) (+ y (/ d 2)) (+ y (/ d 2)) (+ y (/ d 2)) (+ y (/ d 2)) (+ y (/ d 2)) (+ y (/ d 2))) (* (+ a b) (+ a b) (+ a b) (+ a b) (+ a b) (+ a b) (+ a b) (+ a b) (/ b 2) (/ b 2) (/ b 2) (/ b 2) (/ b 2) (/ b 2) (/ d 2) (/ d 2) (/ d 2) (/ d 2) (/ d 2) (+ y (/ d 2)) (+ y (/ d 2)) (+ y (/ d 2)) (+ y (/ d 2)) (+ y (/ d 2)) (+ y (/ d 2)))) (* 2 (+ a b) (+ a b) (+ a b) (+ a b) (+ a b) (+ a b) (+ a b) (/ b 2) (/ b 2) (/ b 2) (/ b 2) (/ b 2) (/ b 2) (/ b 2) (/ b 2) (/ d 2) (/ d 2) (/ d 2) (/ d 2) (/ d 2) (/ d 2) (/ d 2) (+ y (/ d 2)) (+ y (/ d 2)) (+ y (/ d 2)) (+ y (/ d 2)) (+ y (/ d 2)) (+ y (/ d 2)) y00) (* (+ a b) (+ a b) (+ a b) (+ a b) (+ a b) (+ a b) (+ a b) a00 (/ b 2) (/ b 2) (/ b 2) (/ b 2) (/ b 2) (/ b 2) (/ d 2) (/ d 2) (/ d 2) (/ d 2) (/ d 2) (+ y (/ d 2)) (+ y (/ d 2)) (+ y (/ d 2)) (+ y (/ d 2)) (+ y (/ d 2)) (+ y (/ d 2))) (* (+ a b) (+ a b) (+ a b) (+ a b) (+ a b) (+ a b) (/ b 2) (/ b 2) (/ b 2) (/ b 2) (/ b 2) (/ b 2) (/ b 2) (/ b 2) (/ d 2) (/ d 2) (/ d 2) (/ d 2) (/ d 2) (+ y (/ d 2)) (+ y (/ d 2)) (+ y (/ d 2)) (+ y (/ d 2))) (* 2 (+ a b) (+ a b) (+ a b) (+ a b) (+ a b) (/ b 2) (/ b 2) (/ b 2) (/ b 2) (/ b 2) (/ b 2) (/ b 2) (/ b 2) (/ b 2) (/ d 2) (/ d 2) (/ d 2) (/ d 2) (+ y (/ d 2)) (+ y (/ d 2)) (+ y (/ d 2)) (+ y (/ d 2)) y00) (* (+ a b) (+ a b) (+ a b) (+ a b) (+ a b) (+ a b) (+ a b) (+ a b) (/ b 2) (/ b 2) (/ b 2) (/ b 2) (/ b 2) (/ b 2) (/ b 2) (/ d 2) (/ d 2) (/ d 2) (/ d 2) (/ d 2) (/ d 2) (/ d 2) (/ d 2) (+ y (/ d 2)) (+ y (/ d 2)) (+ y (/ d 2)) (+ y (/ d 2)) (+ y (/ d 2)) (+ y (/ d 2))) (* 2 (+ a b) (+ a b) (+ a b) (+ a b) (+ a b) (/ b 2) (/ b 2) (/ b 2) (/ b 2) (/ b 2) (/ b 2) (/ b 2) (/ b 2) (/ b 2) (/ b 2) (/ d 2) (/ d 2) (/ d 2) (/ d 2) (/ d 2) (/ d 2) (/ d 2) (+ y (/ d 2)) (+ y (/ d 2)) (+ y (/ d 2)) (+ y (/ d 2)) (+ y (/ d 2)))) (* (+ a b) (+ a b) (+ a b) (+ a b) (+ a b) (+ a b) (+ a b) a00 (/ b 2) (/ b 2) (/ b 2) (/ b 2) (/ b 2) (/ b 2) (/ b 2) (/ d 2) (/ d 2) (/ d 2) (/ d 2) (/ d 2) (/ d 2) (/ d 2) (/ d 2) (+ y (/ d 2)) (+ y (/ d 2)) (+ y (/ d 2)) (+ y (/ d 2)) (+ y (/ d 2)) (+ y (/ d 2)))) (* 2 (+ a b) (+ a b) (+ a b) (+ a b) (+ a b) (+ a b) (+ a b) (/ b 2) (/ b 2) (/ b 2) (/ b 2) (/ b 2) (/ b 2) (/ b 2) (/ b 2) (/ d 2) (/ d 2) (/ d 2) (/ d 2) (+ y (/ d 2)) (+ y (/ d 2)) (+ y (/ d 2)) (+ y (/ d 2)) (+ y (/ d 2)) (+ y (/ d 2)) y00)) (* (+ a b) (+ a b) (+ a b) (+ a b) (+ a b) a00 (/ b 2) (/ b 2) (/ b 2) (/ b 2) (/ b 2) (/ b 2) (/ b 2) (/ b 2) (/ d 2) (/ d 2) (/ d 2) (/ d 2) (/ d 2) (+ y (/ d 2)) (+ y (/ d 2)) (+ y (/ d 2)) (+ y (/ d 2))) (* 2 (+ a b) (+ a b) (+ a b) (+ a b) (+ a b) (/ b 2) (/ b 2) (/ b 2) (/ b 2) (/ b 2) (/ b 2) (/ b 2) (/ b 2) (/ b 2) (/ d 2) (/ d 2) (/ d 2) (/ d 2) (/ d 2) (/ d 2) (/ d 2) (+ y (/ d 2)) (+ y (/ d 2)) (+ y (/ d 2)) (+ y (/ d 2)) (+ y (/ d 2))) (* 2 (+ a b) (+ a b) (+ a b) (+ a b) (+ a b) (+ a b) (+ a b) (/ b 2) (/ b 2) (/ b 2) (/ b 2) (/ b 2) (/ b 2) (/ b 2) (/ d 2) (/ d 2) (/ d 2) (/ d 2) (/ d 2) (/ d 2) (/ d 2) (+ y (/ d 2)) (+ y (/ d 2)) (+ y (/ d 2)) (+ y (/ d 2)) (+ y (/ d 2)) (+ y (/ d 2)) y00)) (* (+ a b) (+ a b) (+ a b) (+ a b) (+ a b) a00 (/ b 2) (/ b 2) (/ b 2) (/ b 2) (/ b 2) (/ b 2) (/ b 2) (/ b 2) (/ b 2) (/ d 2) (/ d 2) (/ d 2) (/ d 2) (/ d 2) (/ d 2) (/ d 2) (/ d 2) (+ y (/ d 2)) (+ y (/ d 2)) (+ y (/ d 2)) (+ y (/ d 2)))) 0))
			)
		)
	)
)
(check-sat)
(get-proof)
(exit)
